c b=3,c=547
p cnf 15 34
2 3 -6 0
1 3 -7 0
3 -11 0
3 -15 0
2 -3 6 0
2 -3 7 0
-3 11 0
-3 15 0
1 2 -5 0
2 -8 0
2 -10 0
2 -14 0
1 -2 3 6 0
3 -8 0
1 -2 -3 -6 0
-2 -3 8 0
1 -2 5 0
1 -2 -7 0
-2 10 0
-2 14 0
1 -4 0
1 -9 0
1 -13 0
-1 3 -6 0
2 3 -7 0
-1 -3 6 0
-1 2 5 0
-1 -2 3 7 0
-2 -3 -7 0
-1 -2 -5 0
-1 4 0
-1 9 0
-1 13 0
-12 0
